experiment/data/lkh-res/Vrp-Set-Golden-n321/Vrp-Set-Golden-n321-lkh/0.lkh1.vrp
NAME : 0
COMMENT : CVRP Instance
TYPE : CVRP
DIMENSION : 321
EDGE_WEIGHT_TYPE : EUC_2D
CAPACITY : 1000
NODE_COORD_SECTION
1	0	0
2	300	100
3	300	300
4	100	300
5	-99	300
6	-299	300
7	-299	100
8	-299	-99
9	-299	-299
10	-99	-299
11	100	-299
12	300	-299
13	300	-99
14	500	100
15	500	300
16	500	500
17	300	500
18	100	500
19	-99	500
20	-299	500
21	-499	500
22	-499	300
23	-499	100
24	-499	-99
25	-499	-299
26	-499	-499
27	-299	-499
28	-99	-499
29	100	-499
30	300	-499
31	500	-499
32	500	-299
33	500	-99
34	700	100
35	700	300
36	700	500
37	700	700
38	500	700
39	300	700
40	100	700
41	-99	700
42	-299	700
43	-499	700
44	-699	700
45	-699	500
46	-699	300
47	-699	100
48	-699	-99
49	-699	-299
50	-699	-499
51	-699	-699
52	-499	-699
53	-299	-699
54	-99	-699
55	100	-699
56	300	-699
57	500	-699
58	700	-699
59	700	-499
60	700	-299
61	700	-99
62	900	100
63	900	300
64	900	500
65	900	700
66	900	900
67	700	900
68	500	900
69	300	900
70	100	900
71	-99	900
72	-299	900
73	-499	900
74	-699	900
75	-899	900
76	-899	700
77	-899	500
78	-899	300
79	-899	100
80	-899	-99
81	-899	-299
82	-899	-499
83	-899	-699
84	-899	-899
85	-699	-899
86	-499	-899
87	-299	-899
88	-99	-899
89	100	-899
90	300	-899
91	500	-899
92	700	-899
93	900	-899
94	900	-699
95	900	-499
96	900	-299
97	900	-99
98	1100	100
99	1100	300
100	1100	500
101	1100	700
102	1100	900
103	1100	1100
104	900	1100
105	700	1100
106	500	1100
107	300	1100
108	100	1100
109	-99	1100
110	-299	1100
111	-499	1100
112	-699	1100
113	-899	1100
114	-1099	1100
115	-1099	900
116	-1099	700
117	-1099	500
118	-1099	300
119	-1099	100
120	-1099	-99
121	-1099	-299
122	-1099	-499
123	-1099	-699
124	-1099	-899
125	-1099	-1099
126	-899	-1099
127	-699	-1099
128	-499	-1099
129	-299	-1099
130	-99	-1099
131	100	-1099
132	300	-1099
133	500	-1099
134	700	-1099
135	900	-1099
136	1100	-1099
137	1100	-899
138	1100	-699
139	1100	-499
140	1100	-299
141	1100	-99
142	1300	100
143	1300	300
144	1300	500
145	1300	700
146	1300	900
147	1300	1100
148	1300	1300
149	1100	1300
150	900	1300
151	700	1300
152	500	1300
153	300	1300
154	100	1300
155	-99	1300
156	-299	1300
157	-499	1300
158	-699	1300
159	-899	1300
160	-1099	1300
161	-1299	1300
162	-1299	1100
163	-1299	900
164	-1299	700
165	-1299	500
166	-1299	300
167	-1299	100
168	-1299	-99
169	-1299	-299
170	-1299	-499
171	-1299	-699
172	-1299	-899
173	-1299	-1099
174	-1299	-1299
175	-1099	-1299
176	-899	-1299
177	-699	-1299
178	-499	-1299
179	-299	-1299
180	-99	-1299
181	100	-1299
182	300	-1299
183	500	-1299
184	700	-1299
185	900	-1299
186	1100	-1299
187	1300	-1299
188	1300	-1099
189	1300	-899
190	1300	-699
191	1300	-499
192	1300	-299
193	1300	-99
194	1500	100
195	1500	300
196	1500	500
197	1500	700
198	1500	900
199	1500	1100
200	1500	1300
201	1500	1500
202	1300	1500
203	1100	1500
204	900	1500
205	700	1500
206	500	1500
207	300	1500
208	100	1500
209	-99	1500
210	-299	1500
211	-499	1500
212	-699	1500
213	-899	1500
214	-1099	1500
215	-1299	1500
216	-1499	1500
217	-1499	1300
218	-1499	1100
219	-1499	900
220	-1499	700
221	-1499	500
222	-1499	300
223	-1499	100
224	-1499	-99
225	-1499	-299
226	-1499	-499
227	-1499	-699
228	-1499	-899
229	-1499	-1099
230	-1499	-1299
231	-1499	-1499
232	-1299	-1499
233	-1099	-1499
234	-899	-1499
235	-699	-1499
236	-499	-1499
237	-299	-1499
238	-99	-1499
239	100	-1499
240	300	-1499
241	500	-1499
242	700	-1499
243	900	-1499
244	1100	-1499
245	1300	-1499
246	1500	-1499
247	1500	-1299
248	1500	-1099
249	1500	-899
250	1500	-699
251	1500	-499
252	1500	-299
253	1500	-99
254	1700	100
255	1700	300
256	1700	500
257	1700	700
258	1700	900
259	1700	1100
260	1700	1300
261	1700	1500
262	1700	1700
263	1500	1700
264	1300	1700
265	1100	1700
266	900	1700
267	700	1700
268	500	1700
269	300	1700
270	100	1700
271	-99	1700
272	-299	1700
273	-499	1700
274	-699	1700
275	-899	1700
276	-1099	1700
277	-1299	1700
278	-1499	1700
279	-1699	1700
280	-1699	1500
281	-1699	1300
282	-1699	1100
283	-1699	900
284	-1699	700
285	-1699	500
286	-1699	300
287	-1699	100
288	-1699	-99
289	-1699	-299
290	-1699	-499
291	-1699	-699
292	-1699	-899
293	-1699	-1099
294	-1699	-1299
295	-1699	-1499
296	-1699	-1699
297	-1499	-1699
298	-1299	-1699
299	-1099	-1699
300	-899	-1699
301	-699	-1699
302	-499	-1699
303	-299	-1699
304	-99	-1699
305	100	-1699
306	300	-1699
307	500	-1699
308	700	-1699
309	900	-1699
310	1100	-1699
311	1300	-1699
312	1500	-1699
313	1700	-1699
314	1700	-1499
315	1700	-1299
316	1700	-1099
317	1700	-899
318	1700	-699
319	1700	-499
320	1700	-299
321	1700	-99
DEMAND_SECTION
1	0
2	300
3	300
4	300
5	300
6	300
7	300
8	300
9	300
10	300
11	300
12	300
13	300
14	180
15	180
16	180
17	180
18	180
19	180
20	180
21	180
22	180
23	180
24	180
25	180
26	180
27	180
28	180
29	180
30	180
31	180
32	180
33	180
34	128
35	128
36	128
37	128
38	128
39	128
40	128
41	128
42	128
43	128
44	128
45	128
46	128
47	128
48	128
49	128
50	128
51	128
52	128
53	128
54	128
55	128
56	128
57	128
58	128
59	128
60	128
61	128
62	100
63	100
64	100
65	100
66	100
67	100
68	100
69	100
70	100
71	100
72	100
73	100
74	100
75	100
76	100
77	100
78	100
79	100
80	100
81	100
82	100
83	100
84	100
85	100
86	100
87	100
88	100
89	100
90	100
91	100
92	100
93	100
94	100
95	100
96	100
97	100
98	81
99	81
100	81
101	81
102	81
103	81
104	81
105	81
106	81
107	81
108	81
109	81
110	81
111	81
112	81
113	81
114	81
115	81
116	81
117	81
118	81
119	81
120	81
121	81
122	81
123	81
124	81
125	81
126	81
127	81
128	81
129	81
130	81
131	81
132	81
133	81
134	81
135	81
136	81
137	81
138	81
139	81
140	81
141	81
142	69
143	69
144	69
145	69
146	69
147	69
148	69
149	69
150	69
151	69
152	69
153	69
154	69
155	69
156	69
157	69
158	69
159	69
160	69
161	69
162	69
163	69
164	69
165	69
166	69
167	69
168	69
169	69
170	69
171	69
172	69
173	69
174	69
175	69
176	69
177	69
178	69
179	69
180	69
181	69
182	69
183	69
184	69
185	69
186	69
187	69
188	69
189	69
190	69
191	69
192	69
193	69
194	60
195	60
196	60
197	60
198	60
199	60
200	60
201	60
202	60
203	60
204	60
205	60
206	60
207	60
208	60
209	60
210	60
211	60
212	60
213	60
214	60
215	60
216	60
217	60
218	60
219	60
220	60
221	60
222	60
223	60
224	60
225	60
226	60
227	60
228	60
229	60
230	60
231	60
232	60
233	60
234	60
235	60
236	60
237	60
238	60
239	60
240	60
241	60
242	60
243	60
244	60
245	60
246	60
247	60
248	60
249	60
250	60
251	60
252	60
253	60
254	52
255	52
256	52
257	52
258	52
259	52
260	52
261	52
262	52
263	52
264	52
265	52
266	52
267	52
268	52
269	52
270	52
271	52
272	52
273	52
274	52
275	52
276	52
277	52
278	52
279	52
280	52
281	52
282	52
283	52
284	52
285	52
286	52
287	52
288	52
289	52
290	52
291	52
292	52
293	52
294	52
295	52
296	52
297	52
298	52
299	52
300	52
301	52
302	52
303	52
304	52
305	52
306	52
307	52
308	52
309	52
310	52
311	52
312	52
313	52
314	52
315	52
316	52
317	52
318	52
319	52
320	52
321	52
DEPOT_SECTION
1
-1
EOF
