experiment/data/lkh-res/Vrp-Set-Golden-n321/Vrp-Set-Golden-n321-lkh/0.lkh1.log
PARAMETER_FILE = baseline_results/cvrp_lkh/Vrp-Set-Golden-n321/Vrp-Set-Golden-n321-lkh/0.lkh1.par
Reading PROBLEM_FILE: "baseline_results/cvrp_lkh/Vrp-Set-Golden-n321/Vrp-Set-Golden-n321-lkh/0.lkh1.vrp" ... done
ASCENT_CANDIDATES = 50
BACKBONE_TRIALS = 0
BACKTRACKING = NO
# BWTSP =
# CANDIDATE_FILE =
CANDIDATE_SET_TYPE = ALPHA
# DISTANCE =
DEPOT = 1
# EDGE_FILE =
EXCESS = 0.00311526
EXTERNAL_SALESMEN = 0
EXTRA_CANDIDATES = 0 
EXTRA_CANDIDATE_SET_TYPE = QUADRANT
GAIN23 = NO
GAIN_CRITERION = YES
INITIAL_PERIOD = 160
INITIAL_STEP_SIZE = 1
INITIAL_TOUR_ALGORITHM = WALK
# INITIAL_TOUR_FILE = 
INITIAL_TOUR_FRACTION = 1.000
# INPUT_TOUR_FILE = 
KICK_TYPE = 4
KICKS = 1
# MAX_BREADTH =
MAKESPAN = NO
MAX_CANDIDATES = 5 
MAX_SWAPS = 0
MAX_TRIALS = 10000
# MERGE_TOUR_FILE =
MOVE_TYPE = 5 SPECIAL
MTSP_MIN_SIZE = 1
MTSP_MAX_SIZE = 320
# MTSP_SOLUTION_FILE = 
# NONSEQUENTIAL_MOVE_TYPE = 5
# OPTIMUM =
OUTPUT_TOUR_FILE = baseline_results/cvrp_lkh/Vrp-Set-Golden-n321/Vrp-Set-Golden-n321-lkh/0.lkh1.tour
PATCHING_A = 1 
PATCHING_C = 0 
# PI_FILE = 
POPMUSIC_INITIAL_TOUR = NO
POPMUSIC_MAX_NEIGHBORS = 5
POPMUSIC_SAMPLE_SIZE = 10
POPMUSIC_SOLUTIONS = 50
POPMUSIC_TRIALS = 1
POPULATION_SIZE = 10
PRECISION = 100
PROBLEM_FILE = baseline_results/cvrp_lkh/Vrp-Set-Golden-n321/Vrp-Set-Golden-n321-lkh/0.lkh1.vrp
RECOMBINATION = IPT
RESTRICTED_SEARCH = YES
RUNS = 1
SALESMEN = 29
SCALE = 1
SEED = 1234
# SINTEF_SOLUTION_FILE = 
STOP_AT_OPTIMUM = YES
SUBGRADIENT = YES
# SUBPROBLEM_SIZE =
# SUBPROBLEM_TOUR_FILE = 
SUBSEQUENT_MOVE_TYPE = 5 SPECIAL
SUBSEQUENT_PATCHING = YES
# TIME_LIMIT =
# TOTAL_TIME_LIMIT =
# TOUR_FILE = 
TRACE_LEVEL = 1
VEHICLES = 29

Lower bound = 85497.4, Ascent time = 0.11 sec.
Cand.min = 2, Cand.avg = 4.9, Cand.max = 5
Preprocessing time = 0.12 sec.
* 1: Cost = 0_136029, Time = 0.13 sec. 
Writing OUTPUT_TOUR_FILE: "baseline_results/cvrp_lkh/Vrp-Set-Golden-n321/Vrp-Set-Golden-n321-lkh/0.lkh1.tour" ... done
* 3: Cost = 0_135807, Time = 0.20 sec. 
Writing OUTPUT_TOUR_FILE: "baseline_results/cvrp_lkh/Vrp-Set-Golden-n321/Vrp-Set-Golden-n321-lkh/0.lkh1.tour" ... done
* 6: Cost = 0_134488, Time = 0.30 sec. 
Writing OUTPUT_TOUR_FILE: "baseline_results/cvrp_lkh/Vrp-Set-Golden-n321/Vrp-Set-Golden-n321-lkh/0.lkh1.tour" ... done
* 10: Cost = 0_133516, Time = 0.38 sec. 
Writing OUTPUT_TOUR_FILE: "baseline_results/cvrp_lkh/Vrp-Set-Golden-n321/Vrp-Set-Golden-n321-lkh/0.lkh1.tour" ... done
* 11: Cost = 0_130930, Time = 0.40 sec. 
Writing OUTPUT_TOUR_FILE: "baseline_results/cvrp_lkh/Vrp-Set-Golden-n321/Vrp-Set-Golden-n321-lkh/0.lkh1.tour" ... done
* 12: Cost = 0_130422, Time = 0.41 sec. 
Writing OUTPUT_TOUR_FILE: "baseline_results/cvrp_lkh/Vrp-Set-Golden-n321/Vrp-Set-Golden-n321-lkh/0.lkh1.tour" ... done
* 13: Cost = 0_130241, Time = 0.44 sec. 
Writing OUTPUT_TOUR_FILE: "baseline_results/cvrp_lkh/Vrp-Set-Golden-n321/Vrp-Set-Golden-n321-lkh/0.lkh1.tour" ... done
* 15: Cost = 0_129880, Time = 0.47 sec. 
Writing OUTPUT_TOUR_FILE: "baseline_results/cvrp_lkh/Vrp-Set-Golden-n321/Vrp-Set-Golden-n321-lkh/0.lkh1.tour" ... done
* 17: Cost = 0_129049, Time = 0.60 sec. 
Writing OUTPUT_TOUR_FILE: "baseline_results/cvrp_lkh/Vrp-Set-Golden-n321/Vrp-Set-Golden-n321-lkh/0.lkh1.tour" ... done
* 24: Cost = 0_127868, Time = 0.71 sec. 
Writing OUTPUT_TOUR_FILE: "baseline_results/cvrp_lkh/Vrp-Set-Golden-n321/Vrp-Set-Golden-n321-lkh/0.lkh1.tour" ... done
* 25: Cost = 0_127290, Time = 0.73 sec. 
Writing OUTPUT_TOUR_FILE: "baseline_results/cvrp_lkh/Vrp-Set-Golden-n321/Vrp-Set-Golden-n321-lkh/0.lkh1.tour" ... done
* 26: Cost = 0_127156, Time = 0.76 sec. 
Writing OUTPUT_TOUR_FILE: "baseline_results/cvrp_lkh/Vrp-Set-Golden-n321/Vrp-Set-Golden-n321-lkh/0.lkh1.tour" ... done
* 28: Cost = 0_126489, Time = 0.78 sec. 
Writing OUTPUT_TOUR_FILE: "baseline_results/cvrp_lkh/Vrp-Set-Golden-n321/Vrp-Set-Golden-n321-lkh/0.lkh1.tour" ... done
* 30: Cost = 0_124415, Time = 0.85 sec. 
Writing OUTPUT_TOUR_FILE: "baseline_results/cvrp_lkh/Vrp-Set-Golden-n321/Vrp-Set-Golden-n321-lkh/0.lkh1.tour" ... done
* 32: Cost = 0_123888, Time = 0.92 sec. 
Writing OUTPUT_TOUR_FILE: "baseline_results/cvrp_lkh/Vrp-Set-Golden-n321/Vrp-Set-Golden-n321-lkh/0.lkh1.tour" ... done
* 34: Cost = 0_123756, Time = 0.95 sec. 
Writing OUTPUT_TOUR_FILE: "baseline_results/cvrp_lkh/Vrp-Set-Golden-n321/Vrp-Set-Golden-n321-lkh/0.lkh1.tour" ... done
* 36: Cost = 0_123376, Time = 0.98 sec. 
Writing OUTPUT_TOUR_FILE: "baseline_results/cvrp_lkh/Vrp-Set-Golden-n321/Vrp-Set-Golden-n321-lkh/0.lkh1.tour" ... done
* 41: Cost = 0_122980, Time = 1.16 sec. 
Writing OUTPUT_TOUR_FILE: "baseline_results/cvrp_lkh/Vrp-Set-Golden-n321/Vrp-Set-Golden-n321-lkh/0.lkh1.tour" ... done
* 45: Cost = 0_122670, Time = 1.24 sec. 
Writing OUTPUT_TOUR_FILE: "baseline_results/cvrp_lkh/Vrp-Set-Golden-n321/Vrp-Set-Golden-n321-lkh/0.lkh1.tour" ... done
* 47: Cost = 0_122557, Time = 1.26 sec. 
Writing OUTPUT_TOUR_FILE: "baseline_results/cvrp_lkh/Vrp-Set-Golden-n321/Vrp-Set-Golden-n321-lkh/0.lkh1.tour" ... done
* 49: Cost = 0_121495, Time = 1.32 sec. 
Writing OUTPUT_TOUR_FILE: "baseline_results/cvrp_lkh/Vrp-Set-Golden-n321/Vrp-Set-Golden-n321-lkh/0.lkh1.tour" ... done
* 50: Cost = 0_121320, Time = 1.33 sec. 
Writing OUTPUT_TOUR_FILE: "baseline_results/cvrp_lkh/Vrp-Set-Golden-n321/Vrp-Set-Golden-n321-lkh/0.lkh1.tour" ... done
* 52: Cost = 0_121202, Time = 1.33 sec. 
Writing OUTPUT_TOUR_FILE: "baseline_results/cvrp_lkh/Vrp-Set-Golden-n321/Vrp-Set-Golden-n321-lkh/0.lkh1.tour" ... done
* 62: Cost = 0_121125, Time = 1.44 sec. 
Writing OUTPUT_TOUR_FILE: "baseline_results/cvrp_lkh/Vrp-Set-Golden-n321/Vrp-Set-Golden-n321-lkh/0.lkh1.tour" ... done
* 65: Cost = 0_120828, Time = 1.49 sec. 
Writing OUTPUT_TOUR_FILE: "baseline_results/cvrp_lkh/Vrp-Set-Golden-n321/Vrp-Set-Golden-n321-lkh/0.lkh1.tour" ... done
* 66: Cost = 0_120466, Time = 1.49 sec. 
Writing OUTPUT_TOUR_FILE: "baseline_results/cvrp_lkh/Vrp-Set-Golden-n321/Vrp-Set-Golden-n321-lkh/0.lkh1.tour" ... done
* 70: Cost = 0_120244, Time = 1.56 sec. 
Writing OUTPUT_TOUR_FILE: "baseline_results/cvrp_lkh/Vrp-Set-Golden-n321/Vrp-Set-Golden-n321-lkh/0.lkh1.tour" ... done
* 71: Cost = 0_120008, Time = 1.56 sec. 
Writing OUTPUT_TOUR_FILE: "baseline_results/cvrp_lkh/Vrp-Set-Golden-n321/Vrp-Set-Golden-n321-lkh/0.lkh1.tour" ... done
* 102: Cost = 0_119961, Time = 2.47 sec. 
Writing OUTPUT_TOUR_FILE: "baseline_results/cvrp_lkh/Vrp-Set-Golden-n321/Vrp-Set-Golden-n321-lkh/0.lkh1.tour" ... done
* 123: Cost = 0_119580, Time = 2.96 sec. 
Writing OUTPUT_TOUR_FILE: "baseline_results/cvrp_lkh/Vrp-Set-Golden-n321/Vrp-Set-Golden-n321-lkh/0.lkh1.tour" ... done
* 132: Cost = 0_119310, Time = 3.11 sec. 
Writing OUTPUT_TOUR_FILE: "baseline_results/cvrp_lkh/Vrp-Set-Golden-n321/Vrp-Set-Golden-n321-lkh/0.lkh1.tour" ... done
* 133: Cost = 0_118899, Time = 3.12 sec. 
Writing OUTPUT_TOUR_FILE: "baseline_results/cvrp_lkh/Vrp-Set-Golden-n321/Vrp-Set-Golden-n321-lkh/0.lkh1.tour" ... done
* 145: Cost = 0_118856, Time = 3.55 sec. 
Writing OUTPUT_TOUR_FILE: "baseline_results/cvrp_lkh/Vrp-Set-Golden-n321/Vrp-Set-Golden-n321-lkh/0.lkh1.tour" ... done
* 149: Cost = 0_118096, Time = 3.58 sec. 
Writing OUTPUT_TOUR_FILE: "baseline_results/cvrp_lkh/Vrp-Set-Golden-n321/Vrp-Set-Golden-n321-lkh/0.lkh1.tour" ... done
* 152: Cost = 0_117911, Time = 3.64 sec. 
Writing OUTPUT_TOUR_FILE: "baseline_results/cvrp_lkh/Vrp-Set-Golden-n321/Vrp-Set-Golden-n321-lkh/0.lkh1.tour" ... done
* 155: Cost = 0_117793, Time = 3.70 sec. 
Writing OUTPUT_TOUR_FILE: "baseline_results/cvrp_lkh/Vrp-Set-Golden-n321/Vrp-Set-Golden-n321-lkh/0.lkh1.tour" ... done
* 162: Cost = 0_117582, Time = 3.96 sec. 
Writing OUTPUT_TOUR_FILE: "baseline_results/cvrp_lkh/Vrp-Set-Golden-n321/Vrp-Set-Golden-n321-lkh/0.lkh1.tour" ... done
* 164: Cost = 0_117524, Time = 3.98 sec. 
Writing OUTPUT_TOUR_FILE: "baseline_results/cvrp_lkh/Vrp-Set-Golden-n321/Vrp-Set-Golden-n321-lkh/0.lkh1.tour" ... done
* 174: Cost = 0_116701, Time = 4.41 sec. 
Writing OUTPUT_TOUR_FILE: "baseline_results/cvrp_lkh/Vrp-Set-Golden-n321/Vrp-Set-Golden-n321-lkh/0.lkh1.tour" ... done
* 183: Cost = 0_116042, Time = 4.65 sec. 
Writing OUTPUT_TOUR_FILE: "baseline_results/cvrp_lkh/Vrp-Set-Golden-n321/Vrp-Set-Golden-n321-lkh/0.lkh1.tour" ... done
* 193: Cost = 0_115944, Time = 4.79 sec. 
Writing OUTPUT_TOUR_FILE: "baseline_results/cvrp_lkh/Vrp-Set-Golden-n321/Vrp-Set-Golden-n321-lkh/0.lkh1.tour" ... done
* 244: Cost = 0_115676, Time = 5.76 sec. 
Writing OUTPUT_TOUR_FILE: "baseline_results/cvrp_lkh/Vrp-Set-Golden-n321/Vrp-Set-Golden-n321-lkh/0.lkh1.tour" ... done
* 275: Cost = 0_115510, Time = 6.22 sec. 
Writing OUTPUT_TOUR_FILE: "baseline_results/cvrp_lkh/Vrp-Set-Golden-n321/Vrp-Set-Golden-n321-lkh/0.lkh1.tour" ... done
* 281: Cost = 0_115320, Time = 6.39 sec. 
Writing OUTPUT_TOUR_FILE: "baseline_results/cvrp_lkh/Vrp-Set-Golden-n321/Vrp-Set-Golden-n321-lkh/0.lkh1.tour" ... done
* 284: Cost = 0_115154, Time = 6.41 sec. 
Writing OUTPUT_TOUR_FILE: "baseline_results/cvrp_lkh/Vrp-Set-Golden-n321/Vrp-Set-Golden-n321-lkh/0.lkh1.tour" ... done
* 287: Cost = 0_114922, Time = 6.45 sec. 
Writing OUTPUT_TOUR_FILE: "baseline_results/cvrp_lkh/Vrp-Set-Golden-n321/Vrp-Set-Golden-n321-lkh/0.lkh1.tour" ... done
* 322: Cost = 0_114896, Time = 7.20 sec. 
Writing OUTPUT_TOUR_FILE: "baseline_results/cvrp_lkh/Vrp-Set-Golden-n321/Vrp-Set-Golden-n321-lkh/0.lkh1.tour" ... done
* 348: Cost = 0_114568, Time = 7.75 sec. 
Writing OUTPUT_TOUR_FILE: "baseline_results/cvrp_lkh/Vrp-Set-Golden-n321/Vrp-Set-Golden-n321-lkh/0.lkh1.tour" ... done
* 355: Cost = 0_114465, Time = 7.90 sec. 
Writing OUTPUT_TOUR_FILE: "baseline_results/cvrp_lkh/Vrp-Set-Golden-n321/Vrp-Set-Golden-n321-lkh/0.lkh1.tour" ... done
* 378: Cost = 0_114351, Time = 8.56 sec. 
Writing OUTPUT_TOUR_FILE: "baseline_results/cvrp_lkh/Vrp-Set-Golden-n321/Vrp-Set-Golden-n321-lkh/0.lkh1.tour" ... done
* 380: Cost = 0_114153, Time = 8.57 sec. 
Writing OUTPUT_TOUR_FILE: "baseline_results/cvrp_lkh/Vrp-Set-Golden-n321/Vrp-Set-Golden-n321-lkh/0.lkh1.tour" ... done
* 394: Cost = 0_114121, Time = 8.76 sec. 
Writing OUTPUT_TOUR_FILE: "baseline_results/cvrp_lkh/Vrp-Set-Golden-n321/Vrp-Set-Golden-n321-lkh/0.lkh1.tour" ... done
* 478: Cost = 0_113970, Time = 10.81 sec. 
Writing OUTPUT_TOUR_FILE: "baseline_results/cvrp_lkh/Vrp-Set-Golden-n321/Vrp-Set-Golden-n321-lkh/0.lkh1.tour" ... done
* 601: Cost = 0_113950, Time = 13.30 sec. 
Writing OUTPUT_TOUR_FILE: "baseline_results/cvrp_lkh/Vrp-Set-Golden-n321/Vrp-Set-Golden-n321-lkh/0.lkh1.tour" ... done
* 602: Cost = 0_113884, Time = 13.30 sec. 
Writing OUTPUT_TOUR_FILE: "baseline_results/cvrp_lkh/Vrp-Set-Golden-n321/Vrp-Set-Golden-n321-lkh/0.lkh1.tour" ... done
* 670: Cost = 0_113877, Time = 14.95 sec. 
Writing OUTPUT_TOUR_FILE: "baseline_results/cvrp_lkh/Vrp-Set-Golden-n321/Vrp-Set-Golden-n321-lkh/0.lkh1.tour" ... done
* 706: Cost = 0_113859, Time = 16.26 sec. 
Writing OUTPUT_TOUR_FILE: "baseline_results/cvrp_lkh/Vrp-Set-Golden-n321/Vrp-Set-Golden-n321-lkh/0.lkh1.tour" ... done
* 707: Cost = 0_113743, Time = 16.29 sec. 
Writing OUTPUT_TOUR_FILE: "baseline_results/cvrp_lkh/Vrp-Set-Golden-n321/Vrp-Set-Golden-n321-lkh/0.lkh1.tour" ... done
* 776: Cost = 0_113718, Time = 17.78 sec. 
Writing OUTPUT_TOUR_FILE: "baseline_results/cvrp_lkh/Vrp-Set-Golden-n321/Vrp-Set-Golden-n321-lkh/0.lkh1.tour" ... done
* 889: Cost = 0_113601, Time = 19.44 sec. 
Writing OUTPUT_TOUR_FILE: "baseline_results/cvrp_lkh/Vrp-Set-Golden-n321/Vrp-Set-Golden-n321-lkh/0.lkh1.tour" ... done
* 923: Cost = 0_113549, Time = 20.22 sec. 
Writing OUTPUT_TOUR_FILE: "baseline_results/cvrp_lkh/Vrp-Set-Golden-n321/Vrp-Set-Golden-n321-lkh/0.lkh1.tour" ... done
* 939: Cost = 0_113519, Time = 20.60 sec. 
Writing OUTPUT_TOUR_FILE: "baseline_results/cvrp_lkh/Vrp-Set-Golden-n321/Vrp-Set-Golden-n321-lkh/0.lkh1.tour" ... done
* 994: Cost = 0_113338, Time = 21.58 sec. 
Writing OUTPUT_TOUR_FILE: "baseline_results/cvrp_lkh/Vrp-Set-Golden-n321/Vrp-Set-Golden-n321-lkh/0.lkh1.tour" ... done
* 1026: Cost = 0_113194, Time = 22.27 sec. 
Writing OUTPUT_TOUR_FILE: "baseline_results/cvrp_lkh/Vrp-Set-Golden-n321/Vrp-Set-Golden-n321-lkh/0.lkh1.tour" ... done
* 1038: Cost = 0_113107, Time = 22.39 sec. 
Writing OUTPUT_TOUR_FILE: "baseline_results/cvrp_lkh/Vrp-Set-Golden-n321/Vrp-Set-Golden-n321-lkh/0.lkh1.tour" ... done
* 1042: Cost = 0_112960, Time = 22.52 sec. 
Writing OUTPUT_TOUR_FILE: "baseline_results/cvrp_lkh/Vrp-Set-Golden-n321/Vrp-Set-Golden-n321-lkh/0.lkh1.tour" ... done
* 1045: Cost = 0_112959, Time = 22.56 sec. 
Writing OUTPUT_TOUR_FILE: "baseline_results/cvrp_lkh/Vrp-Set-Golden-n321/Vrp-Set-Golden-n321-lkh/0.lkh1.tour" ... done
* 1057: Cost = 0_112953, Time = 22.79 sec. 
Writing OUTPUT_TOUR_FILE: "baseline_results/cvrp_lkh/Vrp-Set-Golden-n321/Vrp-Set-Golden-n321-lkh/0.lkh1.tour" ... done
* 1091: Cost = 0_112932, Time = 23.46 sec. 
Writing OUTPUT_TOUR_FILE: "baseline_results/cvrp_lkh/Vrp-Set-Golden-n321/Vrp-Set-Golden-n321-lkh/0.lkh1.tour" ... done
* 1160: Cost = 0_112867, Time = 24.76 sec. 
Writing OUTPUT_TOUR_FILE: "baseline_results/cvrp_lkh/Vrp-Set-Golden-n321/Vrp-Set-Golden-n321-lkh/0.lkh1.tour" ... done
* 1252: Cost = 0_112786, Time = 26.63 sec. 
Writing OUTPUT_TOUR_FILE: "baseline_results/cvrp_lkh/Vrp-Set-Golden-n321/Vrp-Set-Golden-n321-lkh/0.lkh1.tour" ... done
* 1258: Cost = 0_112734, Time = 26.68 sec. 
Writing OUTPUT_TOUR_FILE: "baseline_results/cvrp_lkh/Vrp-Set-Golden-n321/Vrp-Set-Golden-n321-lkh/0.lkh1.tour" ... done
* 1314: Cost = 0_112677, Time = 27.72 sec. 
Writing OUTPUT_TOUR_FILE: "baseline_results/cvrp_lkh/Vrp-Set-Golden-n321/Vrp-Set-Golden-n321-lkh/0.lkh1.tour" ... done
* 1402: Cost = 0_112400, Time = 29.63 sec. 
Writing OUTPUT_TOUR_FILE: "baseline_results/cvrp_lkh/Vrp-Set-Golden-n321/Vrp-Set-Golden-n321-lkh/0.lkh1.tour" ... done
* 1624: Cost = 0_112396, Time = 33.94 sec. 
Writing OUTPUT_TOUR_FILE: "baseline_results/cvrp_lkh/Vrp-Set-Golden-n321/Vrp-Set-Golden-n321-lkh/0.lkh1.tour" ... done
* 1700: Cost = 0_112030, Time = 35.27 sec. 
Writing OUTPUT_TOUR_FILE: "baseline_results/cvrp_lkh/Vrp-Set-Golden-n321/Vrp-Set-Golden-n321-lkh/0.lkh1.tour" ... done
* 1708: Cost = 0_112026, Time = 35.42 sec. 
Writing OUTPUT_TOUR_FILE: "baseline_results/cvrp_lkh/Vrp-Set-Golden-n321/Vrp-Set-Golden-n321-lkh/0.lkh1.tour" ... done
* 1950: Cost = 0_111978, Time = 41.18 sec. 
Writing OUTPUT_TOUR_FILE: "baseline_results/cvrp_lkh/Vrp-Set-Golden-n321/Vrp-Set-Golden-n321-lkh/0.lkh1.tour" ... done
* 1956: Cost = 0_111766, Time = 41.27 sec. 
Writing OUTPUT_TOUR_FILE: "baseline_results/cvrp_lkh/Vrp-Set-Golden-n321/Vrp-Set-Golden-n321-lkh/0.lkh1.tour" ... done
* 2081: Cost = 0_111749, Time = 43.92 sec. 
Writing OUTPUT_TOUR_FILE: "baseline_results/cvrp_lkh/Vrp-Set-Golden-n321/Vrp-Set-Golden-n321-lkh/0.lkh1.tour" ... done
* 2176: Cost = 0_111719, Time = 46.43 sec. 
Writing OUTPUT_TOUR_FILE: "baseline_results/cvrp_lkh/Vrp-Set-Golden-n321/Vrp-Set-Golden-n321-lkh/0.lkh1.tour" ... done
* 2183: Cost = 0_111683, Time = 46.62 sec. 
Writing OUTPUT_TOUR_FILE: "baseline_results/cvrp_lkh/Vrp-Set-Golden-n321/Vrp-Set-Golden-n321-lkh/0.lkh1.tour" ... done
* 2219: Cost = 0_111589, Time = 47.41 sec. 
Writing OUTPUT_TOUR_FILE: "baseline_results/cvrp_lkh/Vrp-Set-Golden-n321/Vrp-Set-Golden-n321-lkh/0.lkh1.tour" ... done
* 2415: Cost = 0_111469, Time = 51.18 sec. 
Writing OUTPUT_TOUR_FILE: "baseline_results/cvrp_lkh/Vrp-Set-Golden-n321/Vrp-Set-Golden-n321-lkh/0.lkh1.tour" ... done
* 3075: Cost = 0_111462, Time = 64.27 sec. 
Writing OUTPUT_TOUR_FILE: "baseline_results/cvrp_lkh/Vrp-Set-Golden-n321/Vrp-Set-Golden-n321-lkh/0.lkh1.tour" ... done
* 3251: Cost = 0_111413, Time = 68.39 sec. 
Writing OUTPUT_TOUR_FILE: "baseline_results/cvrp_lkh/Vrp-Set-Golden-n321/Vrp-Set-Golden-n321-lkh/0.lkh1.tour" ... done
* 3612: Cost = 0_111377, Time = 75.89 sec. 
Writing OUTPUT_TOUR_FILE: "baseline_results/cvrp_lkh/Vrp-Set-Golden-n321/Vrp-Set-Golden-n321-lkh/0.lkh1.tour" ... done
* 3761: Cost = 0_111367, Time = 79.26 sec. 
Writing OUTPUT_TOUR_FILE: "baseline_results/cvrp_lkh/Vrp-Set-Golden-n321/Vrp-Set-Golden-n321-lkh/0.lkh1.tour" ... done
* 4688: Cost = 0_111216, Time = 101.10 sec. 
Writing OUTPUT_TOUR_FILE: "baseline_results/cvrp_lkh/Vrp-Set-Golden-n321/Vrp-Set-Golden-n321-lkh/0.lkh1.tour" ... done
* 5216: Cost = 0_111181, Time = 113.05 sec. 
Writing OUTPUT_TOUR_FILE: "baseline_results/cvrp_lkh/Vrp-Set-Golden-n321/Vrp-Set-Golden-n321-lkh/0.lkh1.tour" ... done
* 5231: Cost = 0_111160, Time = 113.53 sec. 
Writing OUTPUT_TOUR_FILE: "baseline_results/cvrp_lkh/Vrp-Set-Golden-n321/Vrp-Set-Golden-n321-lkh/0.lkh1.tour" ... done
* 5283: Cost = 0_111114, Time = 114.84 sec. 
Writing OUTPUT_TOUR_FILE: "baseline_results/cvrp_lkh/Vrp-Set-Golden-n321/Vrp-Set-Golden-n321-lkh/0.lkh1.tour" ... done
* 6412: Cost = 0_111108, Time = 141.61 sec. 
Writing OUTPUT_TOUR_FILE: "baseline_results/cvrp_lkh/Vrp-Set-Golden-n321/Vrp-Set-Golden-n321-lkh/0.lkh1.tour" ... done
* 6913: Cost = 0_110987, Time = 154.62 sec. 
Writing OUTPUT_TOUR_FILE: "baseline_results/cvrp_lkh/Vrp-Set-Golden-n321/Vrp-Set-Golden-n321-lkh/0.lkh1.tour" ... done
* 7452: Cost = 0_110958, Time = 166.42 sec. 
Writing OUTPUT_TOUR_FILE: "baseline_results/cvrp_lkh/Vrp-Set-Golden-n321/Vrp-Set-Golden-n321-lkh/0.lkh1.tour" ... done
* 7754: Cost = 0_110826, Time = 171.68 sec. 
Writing OUTPUT_TOUR_FILE: "baseline_results/cvrp_lkh/Vrp-Set-Golden-n321/Vrp-Set-Golden-n321-lkh/0.lkh1.tour" ... done
* 7857: Cost = 0_110776, Time = 173.28 sec. 
Writing OUTPUT_TOUR_FILE: "baseline_results/cvrp_lkh/Vrp-Set-Golden-n321/Vrp-Set-Golden-n321-lkh/0.lkh1.tour" ... done
* 8091: Cost = 0_110761, Time = 177.34 sec. 
Writing OUTPUT_TOUR_FILE: "baseline_results/cvrp_lkh/Vrp-Set-Golden-n321/Vrp-Set-Golden-n321-lkh/0.lkh1.tour" ... done
* 8699: Cost = 0_110686, Time = 188.79 sec. 
Writing OUTPUT_TOUR_FILE: "baseline_results/cvrp_lkh/Vrp-Set-Golden-n321/Vrp-Set-Golden-n321-lkh/0.lkh1.tour" ... done
Population:
  1: 0_110686
Run 1: Cost = 0_110686, Time = 214.95 sec. 

Successes/Runs = 0/1 
Cost.min = 110686, Cost.avg = 110686.00, Cost.max = 110686
Gap.min = 0.0000%, Gap.avg = 0.0000%, Gap.max = 0.0000%
Penalty.min = 0, Penalty.avg = 0.00, Penalty.max = 0
Trials.min = 10000, Trials.avg = 10000.0, Trials.max = 10000
Time.min = 214.95 sec., Time.avg = 214.95 sec., Time.max = 214.95 sec.
Time.total = 215.07 sec.
  Size.min = 4, Size.max = 17, Penalty = 0
  Cost.min = 1231, Cost.max = 5883, Cost.sum = 110686
Best CVRP solution:
  Cost = 0_110686

