experiment/data/lkh-res/Vrp-Set-Golden-n321/Vrp-Set-Golden-n321-lkh/0.lkh1.tour
NAME : 0.110686.tour
COMMENT : Length = 110686
COMMENT : Found by LKH-3 [Keld Helsgaun] Tue Apr  9 02:03:29 2024
TYPE : TOUR
DIMENSION : 349
TOUR_SECTION
1
10
27
25
9
328
13
33
14
2
325
5
70
3
4
326
50
82
122
170
226
290
289
288
224
223
167
119
47
329
77
116
164
163
218
282
281
280
279
278
216
217
161
162
75
334
24
48
80
120
168
225
169
121
81
49
341
123
171
227
291
292
293
294
295
296
297
298
299
300
301
235
178
128
347
65
102
146
198
199
200
201
202
148
147
103
66
37
339
19
41
71
72
111
73
42
20
345
89
131
240
306
305
304
303
302
236
237
179
129
87
53
343
100
101
145
197
257
258
259
260
261
262
263
264
265
203
149
104
336
110
156
157
158
212
274
273
211
210
272
271
270
208
209
155
109
331
76
115
114
160
214
215
277
276
275
213
159
113
112
74
335
28
54
88
130
180
238
239
181
182
132
90
333
78
117
165
221
220
219
283
284
285
286
287
222
166
118
79
330
6
21
43
44
45
46
348
32
61
97
141
193
253
142
98
62
34
342
52
86
127
177
176
234
233
175
126
85
26
338
39
68
106
151
205
206
152
153
107
69
18
337
60
95
138
137
189
188
136
135
134
91
55
327
191
251
319
318
317
316
315
314
313
312
246
247
248
249
250
190
139
349
40
108
154
207
269
268
267
266
204
150
105
67
38
340
99
143
144
196
256
255
195
194
254
321
320
252
192
140
96
322
51
84
125
173
174
232
231
230
229
228
172
124
83
323
7
22
23
8
324
56
57
92
93
94
58
59
31
346
15
35
63
64
36
16
17
344
183
242
241
307
308
309
243
244
310
311
245
187
186
185
184
133
332
12
30
29
11
-1
EOF
